p cnf 72 278
3 1 0
3 -2 0
-1 2 -3 0
4 5 -6 0
-4 -5 -6 0
4 -5 6 0
-4 5 6 0
3 -6 -7 0
-3 6 -7 0
3 6 7 0
-3 -6 7 0
-8 5 0
-8 1 0
-5 -1 8 0
9 -10 -11 0
-9 10 -11 0
9 10 11 0
-9 -10 11 0
-8 -11 -12 0
8 11 -12 0
-8 11 12 0
8 -11 12 0
-13 -11 -14 0
13 11 -14 0
-13 11 14 0
13 -11 14 0
15 2 0
15 14 0
-2 -14 -15 0
-9 -15 -16 0
9 15 -16 0
-9 15 16 0
9 -15 16 0
12 -16 -17 0
-12 16 -17 0
12 16 17 0
-12 -16 17 0
7 17 -18 0
-7 -17 -18 0
7 -17 18 0
-7 17 18 0
20 9 0
20 -19 0
-9 19 -20 0
21 -20 0
21 -9 0
20 9 -21 0
-21 -16 -22 0
21 16 -22 0
-21 16 22 0
21 -16 22 0
-23 18 0
-23 22 0
-18 -22 23 0
-8 -21 -24 0
8 21 -24 0
-8 21 24 0
8 -21 24 0
25 12 0
25 24 0
-12 -24 -25 0
3 26 -27 0
-3 -26 -27 0
3 -26 27 0
-3 26 27 0
-28 14 0
-28 -27 0
-14 27 28 0
-29 -17 0
-29 28 0
17 -28 29 0
30 -1 0
30 -5 0
1 5 -30 0
4 -20 -31 0
-4 20 -31 0
4 20 31 0
-4 -20 31 0
11 31 -32 0
-11 -31 -32 0
11 -31 32 0
-11 31 32 0
-30 -32 -33 0
30 32 -33 0
-30 32 33 0
30 -32 33 0
34 -29 0
34 33 0
29 -33 -34 0
-35 -25 0
-35 34 0
25 -34 35 0
23 35 -36 0
-23 -35 -36 0
23 -35 36 0
-23 35 36 0
20 24 -37 0
-20 -24 -37 0
20 -24 37 0
-20 24 37 0
-37 20 -38 0
37 -20 -38 0
-37 -20 38 0
37 20 38 0
-39 -26 0
-39 -31 0
26 31 39 0
7 6 -40 0
-7 -6 -40 0
7 -6 40 0
-7 6 40 0
-41 40 0
-41 26 0
-40 -26 41 0
42 39 0
42 -41 0
-39 41 -42 0
38 42 -43 0
-38 -42 -43 0
38 -42 43 0
-38 42 43 0
44 -10 0
44 -24 0
10 24 -44 0
45 1 0
45 44 0
-1 -44 -45 0
-46 -5 0
-46 3 0
5 -3 46 0
47 -45 0
47 46 0
45 -46 -47 0
8 -4 -48 0
-8 4 -48 0
8 4 48 0
-8 -4 48 0
-48 10 -49 0
48 -10 -49 0
-48 -10 49 0
48 10 49 0
50 -12 0
50 -2 0
12 2 -50 0
-51 40 0
-51 -27 0
-40 27 51 0
50 -51 -52 0
-50 51 -52 0
50 51 52 0
-50 -51 52 0
53 -49 0
53 52 0
49 -52 -53 0
-54 -7 0
-54 11 0
7 -11 54 0
55 53 0
55 -54 0
-53 54 -55 0
56 -47 0
56 55 0
47 -55 -56 0
43 56 -57 0
-43 -56 -57 0
43 -56 57 0
-43 56 57 0
-58 -36 0
-58 -57 0
36 57 58 0
12 11 -59 0
-12 -11 -59 0
12 -11 59 0
-12 11 59 0
-60 -14 0
-60 48 0
14 -48 60 0
61 2 0
61 -60 0
-2 60 -61 0
-62 59 0
-62 -61 0
-59 61 62 0
-63 31 0
-63 -9 0
-31 9 63 0
-65 -64 0
-65 6 0
64 -6 65 0
-66 63 0
-66 -65 0
-63 65 66 0
-67 4 0
-67 -2 0
-4 2 67 0
-13 60 -68 0
13 -60 -68 0
-13 -60 68 0
13 60 68 0
67 68 -69 0
-67 -68 -69 0
67 -68 69 0
-67 68 69 0
70 -66 0
70 -69 0
66 69 -70 0
62 70 -71 0
-62 -70 -71 0
62 -70 71 0
-62 70 71 0
72 -58 0
72 -71 0
58 71 -72 0
-23 4 7 0
32 1 0
-35 -33 64 0
-28 69 0
-45 62 0
54 -13 -63 26 -43 0
-56 -15 -10 57 0
-37 -69 0
-13 -70 0
-29 16 11 0
-42 -1 68 -36 -43 0
-9 33 -5 23 0
-61 -45 11 -41 69 57 0
10 -17 0
56 41 0
-39 52 69 18 -5 0
68 65 -44 -1 -4 0
-41 -63 18 -5 -36 -33 0
46 -50 -63 -45 52 0
-36 -54 27 4 0
4 -24 -9 48 -2 60 0
-47 -62 0
-4 2 -3 0
-7 33 -55 -23 68 27 0
27 52 -37 -72 0
7 68 0
29 -3 -56 -47 0
-9 71 8 24 0
19 53 28 65 69 0
7 2 48 -1 -36 0
41 48 -65 0
-46 -40 7 -58 1 0
61 -43 0
56 40 63 -29 -70 54 0
-64 15 -58 -48 -60 0
-31 -1 -55 0
26 -35 -40 -46 -34 0
41 -16 -44 28 -57 0
72 70 0
37 -9 -32 -63 -51 -15 0
67 -23 -63 -12 34 0
-26 4 0
31 65 -38 33 0
39 27 -19 0
-27 8 18 0
35 10 66 -7 -6 0
-55 -46 -9 0
61 57 -22 -59 36 0
38 -15 2 -17 0
25 -62 -2 47 -51 -54 0
-1 69 -9 35 26 0
-24 -54 20 0
-34 12 21 11 -17 -66 0
39 -35 -55 -18 -23 72 0
45 36 -12 -38 0
-44 -4 0
-41 4 -36 17 -10 -26 0
-5 -4 -8 -68 -28 13 0
-18 9 69 0
50 30 64 0
-28 -58 14 0
-7 -58 -43 48 0
-50 -59 0
36 37 5 21 52 0
72 0
